(set-logic QF_S)
(set-option :strings-exp true)
(set-option :produce-models true)
(declare-fun sigmaStar_0 () String)
(declare-fun literal_13 () String)
(assert (= literal_13 "\x3c\x61\x20\x68\x72\x65\x66\x3d\x5c\x22\x63\x6f\x6d\x6d\x65\x6e\x74\x2e\x70\x68\x70\x3f\x69\x64\x3d\x26\x61\x6d\x70\x3b\x65\x69\x64\x3d\x26\x61\x6d\x70\x3b\x63\x69\x64\x3d\x26\x61\x6d\x70\x3b\x61\x63\x74\x69\x6f\x6e\x3d\x65\x64\x69\x74\x5c\x22\x3e\x3c\x69\x6d\x67\x20\x20\x0d\x0a\x20\x20\x20\x20\x20\x20\x20\x20\x20\x20\x20\x20\x20\x20\x20\x61\x6c\x74\x3d\x5c\x22\x65\x64\x69\x74\x5c\x22\x20\x73\x72\x63\x3d\x5c\x22\x2f\x74\x2f\x65\x64\x69\x74\x2e\x67\x69\x66\x5c\x22\x20\x68\x65\x69\x67\x68\x74\x3d\x5c\x22\x31\x31\x5c\x22\x20\x77\x69\x64\x74\x68\x3d\x5c\x22\x31\x31\x5c\x22\x20\x62\x6f\x72\x64\x65\x72\x3d\x5c\x22\x30\x5c\x22\x20\x2f\x3e\x3c\x2f\x61\x3e\x20"))
(assert (str.in.re literal_13 (re.++ (re.* re.allchar) (re.++ (str.to.re "\x5c\x3c\x53\x43\x52\x49\x50\x54") (re.* re.allchar)))))
(check-sat)
(get-model)
